StudentsNr = 10;
InstructorsNr = 87;
DaysNr = 1;
SlotsPerDay = 40;
AvailabilitySlotsLenght = 10;
RoomNr = 1;
ProgrammNr = 2;
DegreeNr = 1;
RolesNr = 3;
CoursesNr = 2;
InstructorsProgramm = [{2}, {1}, {2}, {2}, {1}, {1, 2}, {1, 2}, {1}, {1, 2}, {1}, {1}, {2}, {1}, {1}, {2}, {1, 2}, {1, 2}, {1, 2}, {1}, {1, 2}, {1, 2}, {1, 2}, {1, 2}, {2}, {2}, {2}, {1, 2}, {1, 2}, {2}, {1}, {1}, {2}, {2}, {2}, {1}, {2}, {1}, {2}, {1, 2}, {1}, {1, 2}, {1, 2}, {1}, {1}, {1, 2}, {1, 2}, {1}, {1}, {2}, {2}, {1}, {1}, {2}, {2}, {1}, {1, 2}, {2}, {2}, {1}, {2}, {1, 2}, {2}, {1}, {2}, {1}, {1, 2}, {1, 2}, {1}, {2}, {2}, {2}, {2}, {2}, {2}, {1, 2}, {2}, {2}, {2}, {2}, {1, 2}, {2}, {1, 2}, {2}, {2}, {1}, {2}, {2}];
InstructorRolesPerProgramm = [|{6, 22, 23, 31, 40, 41, 42, 44, 45, 52, 59, 61, 63, 68, 75, 80}, {10, 14, 20, 27, 28, 37, 40, 41, 42, 44, 46, 47, 55, 61, 67, 68, 75, 85}, {2, 6, 16, 19, 20, 22, 35, 37, 40, 41, 43, 44, 51, 52, 55, 61, 63, 68, 75, 80, 82, 85}|{6, 12, 22, 23, 26, 29, 34, 36, 38, 41, 42, 45, 50, 58, 60, 61, 62, 64, 73, 75, 78, 80, 81, 83, 84, 86}, {4, 20, 25, 26, 27, 28, 29, 32, 36, 41, 42, 46, 57, 58, 61, 67, 69, 71, 73, 75, 76, 79, 83}, {6, 12, 16, 20, 22, 25, 26, 32, 34, 41, 49, 54, 57, 58, 61, 62, 64, 69, 73, 74, 75, 77, 79, 80, 82}|];
InstructorsAvailability = [|0, 0, 1, 1, |0, 1, 1, 0, |1, 1, 0, 1, |1, 1, 1, 0, |1, 1, 1, 1, |1, 1, 1, 1, |1, 1, 1, 1, |0, 0, 1, 1, |1, 1, 1, 1, |0, 1, 1, 1, |0, 1, 0, 1, |1, 1, 1, 0, |1, 1, 0, 1, |1, 1, 0, 0, |1, 1, 1, 1, |1, 1, 1, 1, |1, 1, 1, 1, |0, 0, 0, 1, |0, 0, 1, 1, |1, 1, 0, 1, |1, 1, 0, 1, |1, 1, 1, 1, |0, 1, 1, 1, |0, 1, 1, 1, |0, 0, 1, 1, |0, 0, 1, 1, |1, 1, 1, 1, |1, 1, 1, 1, |1, 1, 1, 1, |1, 1, 1, 1, |1, 1, 1, 0, |1, 1, 1, 1, |0, 1, 1, 1, |1, 1, 1, 1, |1, 1, 1, 1, |0, 0, 0, 1, |1, 1, 1, 1, |0, 1, 0, 1, |1, 1, 1, 1, |1, 1, 0, 0, |0, 0, 1, 0, |0, 1, 1, 1, |0, 1, 1, 1, |0, 1, 1, 1, |0, 1, 1, 1, |0, 1, 1, 0, |0, 0, 0, 1, |0, 1, 1, 1, |0, 1, 0, 1, |1, 1, 1, 1, |1, 1, 1, 0, |0, 1, 1, 1, |0, 0, 1, 1, |0, 1, 1, 1, |0, 0, 1, 1, |0, 0, 0, 1, |1, 1, 0, 1, |0, 0, 1, 1, |0, 1, 1, 1, |0, 1, 1, 1, |1, 1, 1, 1, |1, 1, 0, 0, |0, 0, 0, 1, |0, 1, 1, 1, |1, 0, 1, 1, |0, 1, 1, 1, |0, 0, 1, 1, |0, 1, 1, 0, |1, 1, 1, 1, |1, 0, 1, 1, |1, 0, 1, 1, |1, 1, 1, 0, |1, 1, 1, 1, |1, 1, 1, 1, |1, 0, 1, 1, |1, 1, 1, 1, |0, 0, 1, 1, |0, 0, 0, 1, |1, 1, 1, 1, |0, 1, 1, 1, |0, 1, 0, 0, |1, 1, 1, 1, |1, 1, 1, 1, |0, 1, 1, 1, |1, 1, 1, 1, |1, 1, 1, 1, |1, 1, 1, 1|];
StudentsProgramm = [2, 2, 2, 2, 1, 2, 2, 2, 2, 2];
StudentsDegree = [1, 1, 1, 1, 1, 1, 1, 1, 1, 1];
StudentsSupervisorId = [24, 36, 36, 24, 13, 71, 25, 1, 34, 67];
StudentsCourseIds = [{}, {}, {}, {}, {}, {}, {}, {}, {}, {}];
StudentsAvailability = [|0, 1, 1, 1, |1, 1, 1, 1, |1, 1, 1, 1, |1, 1, 1, 1, |1, 1, 1, 0, |1, 1, 1, 1, |0, 1, 1, 1, |1, 1, 1, 1, |1, 1, 1, 0, |1, 1, 1, 0|];
TheoryticalMinCard = [1, 0, 0, 1, 1, 0, 0, 1, 0, 0];
CoursesInstructorIds = [{1, 5, 8, 9, 10, 13, 14, 20, 27, 28, 32, 33, 39, 42, 43, 47, 48, 60, 72, 77, 78, 79, 80}, {5, 8, 15, 17, 24, 30, 32, 34, 56, 58, 63, 65, 69, 70, 75, 76, 84, 85, 86}];
RolesDemands = [15, 15, 15];
RolesContinuity = [2];
ExamLen = [2, 2, 2, 2, 2, 2, 2, 2, 2, 2];
LunchTsMinLen = 0;
LunchStarts = [10..28];
SupervisorAvailable = 5;
OptimalLunchLenght = [2, 0];
OptimalStartTs = [2, 0];
OptimalFinishTs = [0, 39];
MinimizeRooms = 400;
RolesSoftContinuity = [|1, 2, 3|2, 3, 4|];
SameDegreeInRoom = 20;
Mergeability = 0;
